c clasp version 2.1.1
c Reading from p37.cnf
c Solving...
s SATISFIABLE

c Models        : 1+    
c Time          : 2.071s (Solving: 0.46s 1st Model: 0.46s Unsat: 0.00s)
c CPU Time      : 2.060s
c Choices       : 15087
c Conflicts     : 1136
c Restarts      : 3      (Average: 378.67 Last: 12)

c Variables     : 219937 (Eliminated: 68624 Frozen:    0)
c Constraints   : 258210 (Binary: 64.2% Ternary: 34.7% Other:  1.1%)
c Lemmas        : 1136   (Binary:  0.4% Ternary:  1.4% Other: 98.2%)
c   Conflict    : 1136   (Average Length: 44.4) 
c   Loop        : 0      (Average Length: 0.0) 
c   Other       : 0      (Average Length: 0.0)
c   Deleted     : 0     
